interdiction/MCDM/NO_CORR/GEN_FROM_60/10_ITEMS_1000_GEN/K5011W06.KNP.mps
NAME          BLANK   
ROWS
 N  OBJROW
 L  R0000000
COLUMNS
    C0000000  OBJROW     -226.         R0000000  788.        
    C0000001  OBJROW     -65.          R0000000  623.        
    C0000002  OBJROW     -58.          R0000000  652.        
    C0000003  OBJROW     -734.         R0000000  123.        
    C0000004  OBJROW     -279.         R0000000  563.        
    C0000005  OBJROW     -163.         R0000000  328.        
    C0000006  OBJROW     -177.         R0000000  985.        
    C0000007  OBJROW     -495.         R0000000  273.        
    C0000008  OBJROW     -171.         R0000000  391.        
    C0000009  OBJROW     -732.         R0000000  471.        
    C0000010  OBJROW     -412.         R0000000  904.        
RHS
    RHS       R0000000  14444.      
BOUNDS
 BV BOUND     C0000000  1.          
 BV BOUND     C0000001  1.          
 BV BOUND     C0000002  1.          
 BV BOUND     C0000003  1.          
 BV BOUND     C0000004  1.          
 BV BOUND     C0000005  1.          
 BV BOUND     C0000006  1.          
 BV BOUND     C0000007  1.          
 BV BOUND     C0000008  1.          
 BV BOUND     C0000009  1.          
 BV BOUND     C0000010  1.          
ENDATA
