interdiction/MCDM/NO_CORR/GEN_FROM_60/10_ITEMS_1000_GEN/K5011W06.KNP.txt
N 11
M 12
LC 11
LC 12
LC 13
LC 14
LC 15
LC 16
LC 17
LC 18
LC 19
LC 20
LC 21
LR 1
LR 2
LR 3
LR 4
LR 5
LR 6
LR 7
LR 8
LR 9
LR 10
LR 11
LR 12
LO -226
LO -65
LO -58
LO -734
LO -279
LO -163
LO -177
LO -495
LO -171
LO -732
LO -412
OS 1
IC 562
IC 417
IC 2
IC 334
IC 668
IC 647
IC 421
IC 220
IC 874
IC 458
IC 416
IB 2510
